1627, 0, 0, 69, 3
1628, 0, 1, 52, 2
1629, 0, 2, 68, 0
1630, 0, 3, 37, 1
1631, 1, 0, 99, 3
1632, 1, 1, 41, 1
1633, 1, 2, 84, 2
1634, 1, 3, 78, 0
1635, 2, 0, 78, 3
1636, 2, 1, 75, 1
1637, 2, 2, 93, 2
1638, 2, 3, 95, 0
1639, 3, 0, 36, 2
1640, 3, 1, 74, 0
1641, 3, 2, 48, 1
1642, 3, 3, 51, 3
